c WARNING: for repeatability, setting FPU to use double precision
d VARIABLES            141558       
d CONSTRAINTS          595356       
c ============================[ Problem Statistics ]=============================
c |                                                                             |
c |  Number of variables:        141558                                         |
c |  Number of clauses:          595356                                         |
c |  Parse time:                   0.10 s                                       |
c |                                                                             |
c ============================[ Search Statistics ]==============================
c | Conflicts |          ORIGINAL         |          LEARNT          | Progress |
c |           |    Vars  Clauses Literals |    Limit  Clauses Lit/Cl |          |
c ===============================================================================
c |       100 |  111318   517134  1257275 |   189615       99     31 | 21.362 % |
c |       250 |  111318   517134  1257275 |   208577      249     24 | 21.362 % |
c |       475 |  111300   517134  1257275 |   229435      473     25 | 21.375 % |
c |       812 |  111300   516694  1256219 |   252378      806     77 | 21.375 % |
c |      1318 |  111300   516694  1256219 |   277616     1312    104 | 21.375 % |
c |      2077 |  111300   516694  1256219 |   305378     2071     99 | 21.375 % |
c |      3216 |  111300   516694  1256219 |   335915     3210    103 | 21.375 % |
c |      4924 |  111300   516694  1256219 |   369507     4918    107 | 21.375 % |
c |      7486 |  111300   516694  1256219 |   406458     7480    107 | 21.375 % |
c |     11330 |  111300   516694  1256219 |   447104    11324    109 | 21.375 % |
c |     17096 |  111300   516694  1256219 |   491814    17090    122 | 21.375 % |
c |     25745 |  111300   516694  1256219 |   540996    25739    124 | 21.375 % |
c |     38719 |  111300   516694  1256219 |   595095    38713    129 | 21.375 % |
c |     58180 |  111300   516694  1256219 |   654605    58174    119 | 21.375 % |
c |     87372 |  111300   516694  1256219 |   720065    87366    115 | 21.375 % |
c |    131161 |  111300   516694  1256219 |   792072   131155    122 | 21.375 % |
c |    196845 |  111300   516694  1256219 |   871279   196839    129 | 21.375 % |
c |    295371 |  111300   516694  1256219 |   958407   295365    128 | 21.375 % |
c |    443160 |  111300   516694  1256219 |  1054248   443154    132 | 21.375 % |
c |    664843 |  111300   516694  1256219 |  1159672   664837    138 | 21.375 % |
c |    997368 |  111300   516694  1256219 |  1275640   997362    135 | 21.375 % |
c |   1496156 |  111300   516694  1256219 |  1403204   223241    106 | 21.375 % |
c ===============================================================================
c restarts              : 4092
c conflicts             : 2082065        (1162 /sec)
c decisions             : 5139741        (0.00 % random) (2870 /sec)
c propagations          : 3294788821     (1839563 /sec)
c conflict literals     : 278458068      (43.99 % deleted)
d RESTARTS             4092
d FAILURES             2082065      
d NODES                5139741      
d BACKTRACKS           5139741      
d PROPAGATIONS         3294788821   
d NOGOODSIZE           133.74 
d MEMORY               1039.00 
d TIME                 1791.07 

s UNKNOWN
